proyfinal/src/viki/013/experimentInOfficeAgust.take6.output/f0ab04a8-f972-4632-9e64-be01b7310fd4.als.out
Reading from standard input... Use '--help' for help.
============================[ Problem Statistics ]=============================
|                                                                             |
|  Number of variables:         87638                                         |
|  Number of clauses:          161767                                         |
|  Parse time:                   0.03 s                                       |
|                                                                             |
============================[ Search Statistics ]==============================
| Conflicts |          ORIGINAL         |          LEARNT          | Progress |
|           |    Vars  Clauses Literals |    Limit  Clauses Lit/Cl |          |
===============================================================================
|       100 |   63027   107571   268882 |    39442      100     50 | 28.083 % |
|       250 |   63027   107571   268882 |    43386      250     90 | 28.083 % |
|       475 |   63027   107571   268882 |    47725      475    115 | 28.083 % |
|       812 |   63026   107527   268792 |    52498      810    133 | 28.084 % |
|      1318 |   63026   107527   268792 |    57748     1316    114 | 28.084 % |
|      2077 |   62968   107285   268235 |    63522     2070    102 | 28.150 % |
|      3216 |   62927   107127   267862 |    69875     3207     97 | 28.197 % |
|      4924 |   62927   107127   267862 |    76862     4915     93 | 28.197 % |
|      7486 |   62758   106456   266262 |    84548     7462     89 | 28.390 % |
|     11330 |   46517    60681   153833 |    93003    11006     83 | 46.921 % |
===============================================================================
restarts              : 48
conflicts             : 11348          (5761 /sec)
decisions             : 36867          (0.00 % random) (18716 /sec)
propagations          : 19166083       (9729756 /sec)
conflict literals     : 925282         (52.22 % deleted)
Memory used           : 33.47 MB
CPU time              : 1.96984 s

UNSATISFIABLE
